qbf_easy_train/easy_2544_SAT.qdimacs
p cnf 18 37
a 10 2 6 0
e 1 3 4 5 7 8 9 11 12 13 14 15 16 17 18 0
2 -1 0
2 -1 0
1 -2 0
-6 4 0
-6 5 0
-4 -5 6 0
7 -3 0
7 6 0
3 -6 -7 0
-8 2 0
-8 7 0
-2 -7 8 0
-11 9 0
-11 -10 0
-9 10 11 0
8 -11 -12 0
-8 11 -12 0
8 11 12 0
-8 -11 12 0
-13 5 -14 0
13 -5 -14 0
-13 -5 14 0
13 5 14 0
16 -15 0
16 9 0
15 -9 -16 0
-17 -14 0
-17 16 0
14 -16 17 0
12 -17 -18 0
-12 17 -18 0
12 17 18 0
-12 -17 18 0
-14 10 -6 13 12 0
-8 -15 -18 0
16 -13 17 0
18 0
