sat_easy_train/easy_2544_SAT.dimacs
p cnf 126 429
1 -2 -3 0
-1 2 -3 0
1 2 3 0
-1 -2 3 0
4 5 -6 0
-4 -5 -6 0
4 -5 6 0
-4 5 6 0
-8 -6 0
-8 -7 0
6 7 8 0
9 -3 0
9 -8 0
3 8 -9 0
-12 10 0
-12 11 0
-10 -11 12 0
13 -9 0
13 -12 0
9 12 -13 0
16 -6 0
16 -15 0
6 15 -16 0
16 17 -18 0
-16 -17 -18 0
16 -17 18 0
-16 17 18 0
-19 6 0
-19 2 0
-6 -2 19 0
-20 -19 0
-20 11 0
19 -11 20 0
18 -20 -21 0
-18 20 -21 0
18 20 21 0
-18 -20 21 0
14 -21 -22 0
-14 21 -22 0
14 21 22 0
-14 -21 22 0
23 -13 0
23 -22 0
13 22 -23 0
-18 -24 -25 0
18 24 -25 0
-18 24 25 0
18 -24 25 0
-12 -2 -26 0
12 2 -26 0
-12 2 26 0
12 -2 26 0
-27 -11 -28 0
27 11 -28 0
-27 11 28 0
27 -11 28 0
-4 -1 -29 0
4 1 -29 0
-4 1 29 0
4 -1 29 0
5 -29 -30 0
-5 29 -30 0
5 29 30 0
-5 -29 30 0
-31 28 0
-31 -30 0
-28 30 31 0
15 32 -33 0
-15 -32 -33 0
15 -32 33 0
-15 32 33 0
34 -31 0
34 -33 0
31 33 -34 0
35 26 0
35 -34 0
-26 34 -35 0
-25 -35 -36 0
25 35 -36 0
-25 35 36 0
25 -35 36 0
37 15 0
37 -5 0
-15 5 -37 0
38 2 0
38 37 0
-2 -37 -38 0
38 15 -39 0
-38 -15 -39 0
38 -15 39 0
-38 15 39 0
-40 12 0
-40 -5 0
-12 5 40 0
41 39 0
41 40 0
-39 -40 -41 0
42 14 0
42 -11 0
-14 11 -42 0
43 14 0
43 -42 0
-14 42 -43 0
-44 7 0
-44 -8 0
-7 8 44 0
-45 43 0
-45 44 0
-43 -44 45 0
41 45 -46 0
-41 -45 -46 0
41 -45 46 0
-41 45 46 0
47 -36 0
47 -46 0
36 46 -47 0
-48 -23 0
-48 47 0
23 -47 48 0
-2 11 -49 0
2 -11 -49 0
-2 -11 49 0
2 11 49 0
-50 20 0
-50 12 0
-20 -12 50 0
50 34 -51 0
-50 -34 -51 0
50 -34 51 0
-50 34 51 0
-49 51 -52 0
49 -51 -52 0
-49 -51 52 0
49 51 52 0
-53 33 0
-53 19 0
-33 -19 53 0
-54 53 0
-54 10 0
-53 -10 54 0
-56 55 0
-56 -42 0
-55 42 56 0
57 -54 0
57 -56 0
54 56 -57 0
58 52 0
58 57 0
-52 -57 -58 0
-48 58 -59 0
48 -58 -59 0
-48 -58 59 0
48 58 59 0
-60 -55 0
-60 -24 0
55 24 60 0
-18 19 -61 0
18 -19 -61 0
-18 -19 61 0
18 19 61 0
-62 -61 0
-62 -53 0
61 53 62 0
63 -55 0
63 1 0
55 -1 -63 0
-64 63 0
-64 17 0
-63 -17 64 0
65 7 0
65 -64 0
-7 64 -65 0
-66 62 0
-66 -65 0
-62 65 66 0
-67 -60 0
-67 -66 0
60 66 67 0
34 -50 -68 0
-34 50 -68 0
34 50 68 0
-34 -50 68 0
69 -67 0
69 68 0
67 -68 -69 0
70 -9 0
70 -65 0
9 65 -70 0
-7 -60 -71 0
7 60 -71 0
-7 60 71 0
7 -60 71 0
72 4 0
72 71 0
-4 -71 -72 0
73 55 0
73 72 0
-55 -72 -73 0
10 6 -74 0
-10 -6 -74 0
10 -6 74 0
-10 6 74 0
74 73 -75 0
-74 -73 -75 0
74 -73 75 0
-74 73 75 0
76 -73 0
76 75 0
73 -75 -76 0
77 70 0
77 76 0
-70 -76 -77 0
-78 -28 0
-78 33 0
28 -33 78 0
-79 6 -80 0
79 -6 -80 0
-79 -6 80 0
79 6 80 0
78 -80 -81 0
-78 80 -81 0
78 80 81 0
-78 -80 81 0
82 77 0
82 -81 0
-77 81 -82 0
-69 82 -83 0
69 -82 -83 0
-69 -82 83 0
69 82 83 0
84 -59 0
84 -83 0
59 83 -84 0
85 5 0
85 34 0
-5 -34 -85 0
85 -75 -86 0
-85 75 -86 0
85 75 86 0
-85 -75 86 0
-17 26 -87 0
17 -26 -87 0
-17 -26 87 0
17 26 87 0
-88 33 0
-88 -24 0
-33 24 88 0
-89 87 0
-89 88 0
-87 -88 89 0
90 -4 0
90 8 0
4 -8 -90 0
-91 -32 0
-91 -12 0
32 12 91 0
-92 40 0
-92 80 0
-40 -80 92 0
-91 -92 -93 0
91 92 -93 0
-91 92 93 0
91 -92 93 0
-50 93 -94 0
50 -93 -94 0
-50 -93 94 0
50 93 94 0
-95 90 0
-95 -94 0
-90 94 95 0
89 -95 -96 0
-89 95 -96 0
89 95 96 0
-89 -95 96 0
-97 86 0
-97 -96 0
-86 96 97 0
74 61 -98 0
-74 -61 -98 0
74 -61 98 0
-74 61 98 0
99 98 0
99 -1 0
-98 1 -99 0
100 37 0
100 40 0
-37 -40 -100 0
-101 100 0
-101 60 0
-100 -60 101 0
2 73 -102 0
-2 -73 -102 0
2 -73 102 0
-2 73 102 0
-101 -102 -103 0
101 102 -103 0
-101 102 103 0
101 -102 103 0
99 103 -104 0
-99 -103 -104 0
99 -103 104 0
-99 103 104 0
6 7 -105 0
-6 -7 -105 0
6 -7 105 0
-6 7 105 0
106 55 0
106 -27 0
-55 27 -106 0
-107 -4 0
-107 -44 0
4 44 107 0
-106 107 -108 0
106 -107 -108 0
-106 -107 108 0
106 107 108 0
109 -24 0
109 -40 0
24 40 -109 0
110 -108 0
110 109 0
108 -109 -110 0
105 110 -111 0
-105 -110 -111 0
105 -110 111 0
-105 110 111 0
112 100 0
112 -71 0
-100 71 -112 0
111 -112 -113 0
-111 112 -113 0
111 112 113 0
-111 -112 113 0
-114 -63 0
-114 37 0
63 -37 114 0
-75 114 -115 0
75 -114 -115 0
-75 -114 115 0
75 114 115 0
-116 -71 0
-116 42 0
71 -42 116 0
-117 115 0
-117 -116 0
-115 116 117 0
-118 61 0
-118 -37 0
-61 37 118 0
119 -117 0
119 -118 0
117 118 -119 0
-121 -120 0
-121 -92 0
120 92 121 0
119 121 -122 0
-119 -121 -122 0
119 -121 122 0
-119 121 122 0
123 113 0
123 122 0
-113 -122 -123 0
124 104 0
124 123 0
-104 -123 -124 0
-125 97 0
-125 -124 0
-97 124 125 0
-84 125 -126 0
84 -125 -126 0
-84 -125 126 0
84 125 126 0
-62 -26 101 0
-45 -113 -98 -77 20 0
-30 2 0
-76 34 -3 0
43 81 0
-78 -103 -107 76 66 0
-30 83 122 82 0
-32 -126 0
-39 -93 114 -89 13 0
-57 107 -54 -24 39 0
70 -116 86 -59 -41 51 0
-63 60 0
-63 98 0
-77 -48 0
91 98 -40 -78 -5 -100 0
-98 -75 120 16 92 0
3 115 -9 60 66 0
52 -69 -71 -125 121 47 0
-4 -126 68 -108 98 61 0
-19 -4 -93 -78 -99 0
33 120 0
-41 -6 53 0
-40 112 93 -82 78 -86 0
-63 -79 -3 -60 0
62 -54 14 70 0
15 -61 60 -43 -76 78 0
6 100 89 0
-12 21 0
14 -8 -22 -91 0
-73 -15 34 0
-115 -89 122 93 -111 0
-50 -84 94 8 -76 0
6 65 -8 -115 44 -97 0
-26 -105 0
-108 17 0
50 55 -61 -6 8 -30 0
-108 53 -75 -57 0
99 72 0
123 -14 0
18 11 -72 -36 -20 0
96 -25 -85 107 0
-68 41 0
106 80 -36 0
61 59 118 105 -46 22 0
-106 -31 0
-50 -66 0
-112 96 -116 0
-33 49 23 42 -50 0
-106 43 95 75 0
17 -55 104 -3 0
-64 100 0
-81 -37 -67 -103 0
110 -44 0
16 -24 0
60 16 0
-76 115 95 -49 50 0
126 0
